WARNING: for repeatability, setting FPU to use double precision
============================[ Problem Statistics ]=============================
|                                                                             |
|  Number of variables:            50                                         |
|  Number of clauses:             218                                         |
|  Parse time:                   0.00 s                                       |
|                                                                             |
============================[ Search Statistics ]==============================
| Conflicts |          ORIGINAL         |          LEARNT          | Progress |
|           |    Vars  Clauses Literals |    Limit  Clauses Lit/Cl |          |
===============================================================================
===============================================================================
restarts              : 1
conflicts             : 61             (41022 /sec)
decisions             : 76             (0.00 % random) (51110 /sec)
propagations          : 881            (592468 /sec)
conflict literals     : 218            (20.44 % deleted)
Memory used           : 20.00 MB
CPU time              : 0.001487 s

UNSATISFIABLE
